Gurobi Optimizer version 9.1.2 build v9.1.2rc0 (linux64)
Thread count: 36 physical cores, 72 logical processors, using up to 32 threads
Optimize a model with 12 rows, 57 columns and 590 nonzeros
Model fingerprint: 0xf32eec78
Model has 47 quadratic constraints
Coefficient statistics:
  Matrix range     [2e-05, 3e+00]
  QMatrix range    [1e+00, 1e+00]
  QLMatrix range   [1e+00, 1e+00]
  Objective range  [8e-03, 7e-01]
  Bounds range     [1e+00, 1e+00]
  RHS range        [1e+00, 1e+00]
Presolve removed 9 rows and 0 columns

Continuous model is non-convex -- solving as a MIP.

Presolve removed 9 rows and 0 columns
Presolve time: 0.00s
Presolved: 189 rows, 57 columns, 443 nonzeros
Presolved model has 47 bilinear constraint(s)
Variable types: 57 continuous, 0 integer (0 binary)

Root relaxation: objective -1.743721e+00, 44 iterations, 0.00 seconds

    Nodes    |    Current Node    |     Objective Bounds      |     Work
 Expl Unexpl |  Obj  Depth IntInf | Incumbent    BestBd   Gap | It/Node Time

     0     0   -1.74372    0   38          -   -1.74372      -     -    0s
H    0     0                       0.6147548   -1.74372   384%     -    0s
     0     0   -1.64739    0    1    0.61475   -1.64739   368%     -    0s
H    0     0                      -1.6450460   -1.64739  0.14%     -    0s
     0     0     cutoff    0        -1.64505   -1.64505  0.00%     -    0s

Cutting planes:
  RLT: 25
  BQP: 3

Explored 1 nodes (76 simplex iterations) in 0.01 seconds
Thread count was 32 (of 72 available processors)

Solution count 2: -1.64505 0.614755 
No other solutions better than -1.64505

Optimal solution found (tolerance 1.00e-04)
Best objective -1.645045978473e+00, best bound -1.645045978473e+00, gap 0.0000%

User-callback calls 78, time in user-callback 0.00 sec
Gurobi Optimizer version 9.1.2 build v9.1.2rc0 (linux64)
Thread count: 36 physical cores, 72 logical processors, using up to 32 threads
Optimize a model with 24 rows, 125 columns and 2580 nonzeros
Model fingerprint: 0x913d5823
Model has 105 quadratic constraints
Coefficient statistics:
  Matrix range     [5e-06, 5e+01]
  QMatrix range    [1e+00, 1e+00]
  QLMatrix range   [1e+00, 1e+00]
  Objective range  [8e-03, 9e-01]
  Bounds range     [1e+00, 1e+00]
  RHS range        [1e+00, 1e+00]
Presolve removed 11 rows and 0 columns

Continuous model is non-convex -- solving as a MIP.

Presolve removed 11 rows and 0 columns
Presolve time: 0.00s
Presolved: 428 rows, 125 columns, 2018 nonzeros
Presolved model has 105 bilinear constraint(s)
Variable types: 125 continuous, 0 integer (0 binary)

Root relaxation: objective -3.464311e+00, 136 iterations, 0.00 seconds

    Nodes    |    Current Node    |     Objective Bounds      |     Work
 Expl Unexpl |  Obj  Depth IntInf | Incumbent    BestBd   Gap | It/Node Time

     0     0   -3.46431    0   95          -   -3.46431      -     -    0s
H    0     0                      -0.7570090   -3.46431   358%     -    0s
     0     0   -3.11570    0   61   -0.75701   -3.11570   312%     -    0s
H    0     0                      -1.5986121   -3.11570  94.9%     -    0s
     0     0   -3.08762    0   42   -1.59861   -3.08762  93.1%     -    0s
     0     0   -3.00567    0   84   -1.59861   -3.00567  88.0%     -    0s
     0     0   -2.99127    0   61   -1.59861   -2.99127  87.1%     -    0s
     0     0   -2.96341    0   42   -1.59861   -2.96341  85.4%     -    0s
H    0     0                      -1.7306407   -2.96341  71.2%     -    0s
     0     0   -2.95882    0   42   -1.73064   -2.95882  71.0%     -    0s
     0     0   -2.95538    0   42   -1.73064   -2.95538  70.8%     -    0s
H    0     0                      -1.7869087   -2.95538  65.4%     -    0s
     0     0   -2.95307    0   52   -1.78691   -2.95307  65.3%     -    0s
     0     0   -2.95164    0   42   -1.78691   -2.95164  65.2%     -    0s
     0     0   -2.95107    0   42   -1.78691   -2.95107  65.1%     -    0s
     0     0   -2.94952    0   51   -1.78691   -2.94952  65.1%     -    0s
     0     0   -2.94824    0   51   -1.78691   -2.94824  65.0%     -    0s
     0     0   -2.94807    0   51   -1.78691   -2.94807  65.0%     -    0s
     0     0   -2.94777    0   51   -1.78691   -2.94777  65.0%     -    0s
H    0     0                      -2.2411236   -2.94777  31.5%     -    0s
H    0     0                      -2.4710707   -2.94777  19.3%     -    0s
H    0     0                      -2.4834771   -2.94777  18.7%     -    0s
     0     2   -2.94777    0   51   -2.48348   -2.94777  18.7%     -    0s
*  569   422              19      -2.4835269   -2.68332  8.04%  22.9    0s
*  570   422              19      -2.4835322   -2.68332  8.04%  22.8    0s
*  645   422              17      -2.5438605   -2.68332  5.48%  21.2    0s
*  791   388              18      -2.5438655   -2.64236  3.87%  18.8    0s
*  813   388              29      -2.5446310   -2.64236  3.84%  18.6    0s
*  949   518              20      -2.5796110   -2.64236  2.43%  17.2    0s
* 1152   352              20      -2.5796156   -2.59114  0.45%  15.4    0s
* 1288   439              15      -2.5838081   -2.59094  0.28%  14.2    0s
* 1562   143              21      -2.5838081   -2.58724  0.13%  12.5    0s
* 1626   143              22      -2.5838744   -2.58724  0.13%  12.1    0s
* 1865    86              23      -2.5839581   -2.58724  0.13%  10.7    0s
* 1905    86              25      -2.5839608   -2.58724  0.13%  10.6    0s
* 1971    86              25      -2.5839614   -2.58724  0.13%  10.3    0s
* 2071    72              25      -2.5839619   -2.58721  0.13%   9.9    0s
* 2073    72              26      -2.5839620   -2.58721  0.13%   9.9    0s
* 2091    72              25      -2.5839633   -2.58538  0.05%   9.8    0s
* 2106    72              25      -2.5839689   -2.58538  0.05%   9.8    0s
* 2109    72              26      -2.5839716   -2.58538  0.05%   9.8    0s
* 2120    72              25      -2.5839755   -2.58538  0.05%   9.7    0s
* 2210    72              23      -2.5839823   -2.58538  0.05%   9.4    0s
* 2211    72              23      -2.5839838   -2.58538  0.05%   9.4    0s
* 2378    54              26      -2.5839840   -2.58412  0.01%   8.9    0s
* 2465    54              28      -2.5839841   -2.58409  0.00%   8.6    0s
* 2480    54              29      -2.5839844   -2.58409  0.00%   8.6    0s
* 2519    54              26      -2.5839845   -2.58409  0.00%   8.5    0s

Cutting planes:
  RLT: 46
  BQP: 7
  PSD: 20

Explored 2536 nodes (21749 simplex iterations) in 0.58 seconds
Thread count was 32 (of 72 available processors)

Solution count 10: -2.58398 -2.58398 -2.58398 ... -2.58396

Optimal solution found (tolerance 1.00e-04)
Best objective -2.583984498579e+00, best bound -2.584091291385e+00, gap 0.0041%

User-callback calls 5398, time in user-callback 0.00 sec



objective value: -2.583984498579199
objective bound: -2.584091291385339
x_opt: [0.0, 0.0, 1.0, 0.11518266351952541, 1.0, 0.5853509370642813, 1.0, 1.0, 1.0, 0.0, 0.0, 0.32470261983965515, 0.07497391700832091, 0.0, 0.0, 0.512725752819927, 0.0, 0.0, 0.0, 0.0]
GUROBI solution time: 0.5755660533905029




